10511
1 1 0 0 0 0 0 0 1 0 1 0 1 0 1 1 0 0 0 0 
0 15 1 10 12 0 0 1 1 1 10 14 14 10 15 0 0 15 10 14 10 8 12 15 10 8 14 12 0 0 0 10 10 14 0 0 0 15 1 0 15 12 10 0 10 14 12 8 15 15 1 15 12 0 10 10 0 15 0 15 0 10 12 8 8 10 15 0 1 8 10 10 10 10 14 14 10 10 0 15 
